(set-logic NRA)
(declare-fun x () Real)
(declare-fun y () Real)
(assert (or (and (= (* (+ (+ 81 (* x (+ 72 (* x (+ 21 (* x 2)))))) (* y (* y (+ 5 (* x 2))))) y) 0) (< (* (- 1) (+ (* x (+ (- 324) (* x (+ (- 225) (* x (+ (- 52) (* x (- 4)))))))) (* y (* y (+ (+ 63 (* x 12)) (* y (* y 4))))))) 0) (<=  (+ (+ (- 108) (* x (+ (- 135) (* x (+ (- 63) (* x (+ (- 13) (* x (- 1))))))))) (* y (* y (+ (+ 9 (* x 3)) (* y y))))) 0)) (and (= (* (+ (+ 81 (* x (+ 72 (* x (+ 21 (* x 2)))))) (* y (* y (+ 5 (* x 2))))) y) 0) (<  (+ (* x (+ (- 324) (* x (+ (- 225) (* x (+ (- 52) (* x (- 4)))))))) (* y (* y (+ (+ 63 (* x 12)) (* y (* y 4)))))) 0)) (and (=  y 0) (<  (+ 9 (* x 2)) 0)) (and (=  y 0) (< (* (- 1) (+ (+ 12 (* x (+ 7 x))) (* y y))) 0) (<=  (+ (* x (+ 4 x)) (* y y)) 0)) (and (=  y 0) (<  (+ (+ 12 (* x (+ 7 x))) (* y y)) 0)) (and (=  y 0) (< (* (- 1) (+ 3 x)) 0) (<=  x 0))))
(apply qe)
